PROBLEM NAME: 	simple4-TTP
KNAPSACK DATA TYPE: uncorrelated
DIMENSION:	6
NUMBER OF ITEMS: 	8
CAPACITY OF KNAPSACK:  5
MIN SPEED: 	0.1
MAX SPEED: 	1
RENTING RATIO: 	1.0
EDGE_WEIGHT_TYPE:	CEIL_2D
NODE_COORD_SECTION	(INDEX, X, Y): 
1	0	0
2	4.1	0.1
3	4	4.2
4	1	5.2
5   2   2.5
6   3   1.5
ITEMS SECTION	(INDEX, PROFIT, WEIGHT, ASSIGNED NODE NUMBER): 
1	20	2	2
2	30	3	2
3	100	3	3
4	40	1	3
5	40	1	3
6	20	2	4
7	70	1	5
8	40	2	6